NAME : XML100_3124_23
DIMENSION : 101
NB_CLUSTERS : 30
CLUSTERING_ALG : KMeans
CLUSTERING_PARAMS : k(32)
CLUSTERS
1 0
2 8 13
3 17 19 39 53 90
4 12 72
5 62 68 93 94
6 47 77
7 9 48
8 6 15 20 23 80 95
9 28 49 50 60 66 67 88 100
10 33 41 44 46
11 10 14 16 37 38 73
12 5 26 27 43 52 59 99
13 74 83 97
14 51 98
15 3 7 76 87
16 22 24 54
17 85 89
18 25 34 64 86
19 42 45 55 58
20 11 61 78 92
21 29 57
22 36 40 63
23 18 30 82
24 21 35 69
25 70 91
26 4 79 81 84
27 1 32
28 2 71 75
29 31 65
30 56 96
EOF